nN = 10;
nR = 60;
nH = 2;

a = [[20, 22, 15, 15, 25, 20, 18, 17, 17, 22, 16, 19, 24, 22, 25, 17, 15, 16, 22, 19, 21, 16, 17, 17, 15, 24, 25, 23, 23, 17, 25, 19, 23, 17, 21, 17, 24, 24, 16, 15, 18, 18, 23, 23, 15, 18, 23, 22, 18, 17, 19, 24, 25, 16, 18, 18, 15, 21, 23, 17], [17, 22, 15, 18, 17, 17, 24, 21, 21, 16, 19, 22, 21, 19, 18, 19, 23, 19, 15, 20, 16, 20, 18, 19, 18, 16, 19, 23, 20, 24, 18, 15, 15, 17, 18, 17, 18, 25, 21, 22, 18, 22, 24, 22, 16, 17, 23, 17, 22, 22, 23, 23, 19, 15, 22, 15, 24, 22, 18, 20], [18, 15, 24, 22, 20, 15, 19, 15, 23, 17, 15, 17, 23, 21, 20, 15, 18, 20, 25, 23, 21, 23, 17, 22, 15, 21, 16, 25, 24, 18, 25, 18, 16, 19, 19, 17, 15, 16, 17, 19, 22, 24, 24, 21, 20, 20, 22, 17, 19, 18, 16, 16, 25, 17, 15, 24, 15, 17, 24, 23], [18, 22, 24, 23, 18, 22, 24, 17, 20, 22, 23, 24, 18, 21, 16, 16, 22, 21, 17, 19, 17, 15, 20, 15, 19, 20, 18, 16, 23, 23, 20, 19, 20, 18, 23, 16, 18, 16, 24, 25, 20, 20, 22, 15, 21, 23, 21, 19, 16, 22, 20, 15, 18, 23, 15, 23, 19, 17, 24, 16], [22, 19, 20, 24, 25, 15, 17, 25, 17, 15, 24, 16, 17, 23, 24, 23, 20, 20, 18, 18, 23, 19, 17, 24, 18, 15, 22, 17, 24, 25, 23, 19, 21, 15, 24, 19, 24, 20, 17, 25, 20, 22, 25, 24, 19, 23, 21, 20, 17, 17, 16, 18, 16, 17, 15, 24, 23, 21, 19, 21], [15, 21, 16, 22, 21, 15, 18, 17, 17, 16, 24, 20, 15, 15, 21, 23, 19, 17, 15, 22, 25, 25, 16, 16, 16, 20, 17, 15, 19, 21, 16, 25, 24, 23, 22, 24, 20, 19, 24, 21, 19, 18, 23, 20, 15, 21, 20, 15, 22, 23, 15, 24, 23, 23, 17, 25, 21, 23, 18, 18], [24, 16, 16, 23, 16, 19, 25, 20, 20, 19, 21, 23, 24, 18, 24, 24, 21, 18, 25, 22, 15, 15, 16, 23, 17, 21, 23, 21, 19, 24, 16, 15, 19, 25, 21, 17, 15, 23, 16, 25, 23, 25, 25, 19, 22, 22, 22, 25, 23, 20, 23, 25, 16, 24, 18, 20, 23, 22, 20, 24], [23, 20, 24, 16, 17, 18, 16, 16, 24, 25, 23, 25, 15, 17, 23, 16, 21, 18, 17, 23, 16, 22, 15, 21, 16, 25, 24, 19, 15, 18, 19, 17, 16, 19, 16, 22, 22, 18, 24, 24, 21, 25, 15, 21, 16, 20, 16, 17, 24, 16, 25, 23, 21, 19, 16, 17, 19, 17, 15, 21], [19, 21, 22, 17, 15, 20, 25, 24, 16, 20, 19, 25, 24, 25, 19, 19, 21, 19, 25, 20, 23, 15, 22, 21, 16, 16, 21, 23, 25, 22, 22, 23, 19, 15, 25, 18, 15, 19, 19, 21, 15, 17, 16, 21, 19, 18, 24, 24, 24, 22, 20, 18, 19, 25, 16, 25, 18, 17, 22, 23], [19, 19, 22, 19, 17, 17, 23, 25, 22, 17, 19, 18, 19, 16, 23, 22, 24, 17, 18, 20, 24, 24, 23, 25, 17, 23, 16, 22, 16, 17, 25, 18, 21, 19, 22, 25, 22, 17, 18, 16, 21, 23, 23, 25, 18, 19, 15, 21, 19, 22, 18, 19, 23, 17, 16, 17, 19, 16, 23, 21]];
c = [[[0, 0, 0, 0, 0, 0, 0, 0, 0, 0, 0, 0, 0, 0, 0, 0, 0, 0, 0, 0, 0, 0, 0, 0, 0, 0, 0, 0, 0, 0, 0, 0, 0, 0, 0, 0, 0, 0, 0, 0, 0, 0, 0, 0, 0, 0, 0, 0, 0, 0, 0, 0, 0, 0, 0, 0, 0, 0, 0, 0], [41, 43, 45, 36, 34, 31, 44, 50, 46, 39, 45, 33, 40, 37, 45, 39, 46, 37, 43, 32, 38, 43, 36, 47, 42, 35, 50, 42, 34, 41, 46, 30, 46, 47, 48, 30, 40, 38, 45, 35, 35, 43, 35, 38, 47, 37, 34, 32, 47, 38, 50, 32, 40, 38, 47, 36, 36, 42, 31, 35], [35, 48, 44, 48, 45, 39, 37, 33, 50, 42, 35, 39, 39, 31, 49, 48, 49, 39, 33, 41, 41, 41, 34, 44, 32, 32, 36, 36, 46, 34, 46, 39, 36, 35, 40, 43, 30, 37, 45, 39, 35, 41, 48, 39, 49, 50, 33, 33, 39, 49, 36, 39, 32, 38, 33, 34, 40, 42, 43, 47], [47, 31, 44, 37, 43, 40, 50, 50, 45, 42, 44, 46, 47, 49, 44, 39, 50, 45, 49, 36, 36, 50, 41, 35, 33, 31, 41, 32, 48, 39, 37, 48, 30, 39, 48, 41, 44, 42, 31, 38, 32, 46, 47, 46, 40, 50, 35, 46, 41, 48, 47, 33, 50, 38, 45, 37, 38, 38, 30, 47], [47, 47, 39, 38, 46, 47, 38, 46, 39, 32, 38, 38, 40, 41, 40, 35, 44, 33, 46, 42, 49, 39, 39, 36, 44, 37, 46, 33, 40, 39, 44, 35, 50, 46, 44, 44, 47, 36, 48, 31, 41, 40, 46, 34, 34, 50, 47, 48, 48, 45, 49, 40, 48, 44, 43, 34, 49, 36, 32, 48], [42, 30, 40, 50, 33, 47, 47, 36, 48, 47, 45, 48, 37, 34, 43, 40, 47, 31, 44, 47, 36, 39, 33, 35, 40, 48, 33, 49, 47, 48, 45, 49, 32, 45, 48, 32, 41, 32, 49, 33, 48, 43, 36, 50, 33, 35, 35, 30, 30, 48, 50, 45, 37, 47, 48, 34, 33, 49, 33, 45], [30, 47, 34, 37, 30, 42, 31, 48, 36, 44, 46, 31, 37, 43, 38, 37, 43, 40, 47, 32, 50, 49, 43, 48, 37, 31, 48, 43, 49, 41, 39, 44, 47, 40, 40, 31, 36, 41, 50, 34, 37, 39, 43, 36, 34, 43, 37, 47, 48, 34, 43, 48, 41, 46, 39, 46, 32, 40, 45, 45], [41, 50, 47, 49, 38, 50, 38, 47, 36, 41, 45, 37, 33, 34, 37, 41, 36, 41, 39, 39, 34, 37, 30, 38, 47, 32, 33, 49, 35, 33, 49, 35, 45, 33, 33, 38, 46, 40, 41, 49, 46, 49, 40, 38, 38, 34, 39, 46, 49, 45, 37, 41, 40, 37, 30, 48, 49, 32, 39, 44], [41, 45, 42, 39, 43, 49, 33, 46, 33, 43, 31, 38, 47, 33, 47, 43, 35, 47, 46, 36, 43, 40, 39, 46, 48, 39, 35, 50, 35, 37, 47, 40, 38, 36, 44, 34, 48, 48, 46, 44, 33, 44, 35, 30, 36, 48, 36, 37, 43, 42, 30, 35, 37, 32, 39, 32, 42, 47, 43, 33], [31, 39, 49, 35, 48, 34, 38, 38, 47, 45, 50, 37, 42, 37, 41, 43, 44, 44, 33, 49, 41, 37, 50, 43, 42, 46, 40, 43, 41, 37, 36, 33, 48, 49, 33, 34, 33, 42, 49, 41, 36, 33, 46, 37, 50, 39, 42, 41, 30, 35, 43, 34, 35, 40, 33, 44, 49, 49, 47, 44]], [[0, 0, 0, 0, 0, 0, 0, 0, 0, 0, 0, 0, 0, 0, 0, 0, 0, 0, 0, 0, 0, 0, 0, 0, 0, 0, 0, 0, 0, 0, 0, 0, 0, 0, 0, 0, 0, 0, 0, 0, 0, 0, 0, 0, 0, 0, 0, 0, 0, 0, 0, 0, 0, 0, 0, 0, 0, 0, 0, 0], [0, 0, 0, 0, 0, 0, 0, 0, 0, 0, 0, 0, 0, 0, 0, 0, 0, 0, 0, 0, 0, 0, 0, 0, 0, 0, 0, 0, 0, 0, 0, 0, 0, 0, 0, 0, 0, 0, 0, 0, 0, 0, 0, 0, 0, 0, 0, 0, 0, 0, 0, 0, 0, 0, 0, 0, 0, 0, 0, 0], [36, 44, 34, 34, 48, 48, 50, 46, 46, 31, 43, 38, 38, 48, 45, 30, 44, 40, 47, 36, 35, 38, 41, 33, 33, 33, 34, 35, 42, 36, 39, 35, 37, 39, 44, 46, 47, 50, 31, 37, 32, 31, 46, 40, 40, 32, 31, 43, 47, 36, 37, 36, 42, 39, 30, 43, 49, 41, 30, 43], [43, 41, 41, 40, 46, 49, 38, 50, 34, 48, 49, 37, 44, 40, 49, 50, 45, 40, 36, 35, 34, 42, 31, 50, 38, 47, 47, 42, 34, 41, 41, 43, 39, 48, 37, 32, 32, 43, 40, 43, 45, 46, 36, 38, 45, 43, 35, 42, 36, 50, 46, 41, 37, 43, 48, 45, 34, 48, 40, 47], [48, 37, 46, 45, 34, 46, 31, 37, 50, 31, 38, 36, 31, 42, 41, 42, 31, 50, 33, 47, 41, 45, 47, 34, 38, 44, 31, 31, 36, 41, 30, 37, 43, 39, 31, 45, 46, 34, 42, 50, 32, 31, 36, 43, 37, 36, 48, 35, 37, 47, 32, 50, 32, 39, 37, 46, 30, 42, 40, 31], [43, 34, 38, 38, 48, 33, 50, 34, 36, 34, 45, 38, 42, 30, 31, 44, 37, 45, 49, 45, 43, 40, 48, 34, 31, 50, 34, 41, 31, 35, 47, 39, 46, 37, 47, 43, 47, 34, 45, 34, 31, 35, 32, 38, 42, 48, 42, 50, 31, 42, 40, 48, 31, 49, 47, 41, 35, 31, 34, 38], [45, 46, 32, 31, 49, 31, 50, 40, 37, 44, 42, 44, 37, 40, 49, 34, 38, 42, 37, 38, 38, 44, 34, 31, 32, 36, 39, 37, 31, 45, 34, 38, 35, 34, 35, 30, 35, 50, 33, 46, 48, 48, 47, 47, 37, 42, 33, 49, 35, 42, 46, 39, 35, 47, 36, 45, 43, 40, 41, 39], [48, 37, 34, 47, 44, 49, 32, 39, 46, 35, 49, 40, 36, 40, 49, 40, 40, 49, 37, 30, 39, 41, 40, 49, 32, 34, 38, 37, 42, 30, 41, 37, 37, 50, 41, 42, 50, 32, 49, 49, 49, 35, 30, 41, 33, 30, 45, 33, 48, 38, 30, 42, 46, 36, 37, 45, 44, 43, 37, 44], [33, 33, 43, 49, 34, 31, 46, 41, 47, 34, 47, 48, 31, 44, 31, 50, 49, 31, 50, 48, 49, 31, 35, 36, 37, 40, 50, 38, 43, 32, 35, 43, 34, 34, 42, 41, 47, 43, 44, 49, 45, 41, 46, 38, 48, 50, 31, 41, 49, 47, 42, 45, 40, 48, 47, 43, 49, 37, 34, 43], [35, 38, 34, 49, 38, 37, 41, 38, 37, 41, 42, 30, 46, 37, 49, 39, 42, 49, 40, 48, 37, 47, 30, 31, 48, 30, 40, 41, 40, 42, 36, 39, 31, 36, 47, 41, 34, 35, 46, 33, 43, 35, 39, 42, 31, 46, 44, 48, 39, 44, 46, 48, 30, 50, 42, 42, 41, 43, 30, 40]], [[0, 0, 0, 0, 0, 0, 0, 0, 0, 0, 0, 0, 0, 0, 0, 0, 0, 0, 0, 0, 0, 0, 0, 0, 0, 0, 0, 0, 0, 0, 0, 0, 0, 0, 0, 0, 0, 0, 0, 0, 0, 0, 0, 0, 0, 0, 0, 0, 0, 0, 0, 0, 0, 0, 0, 0, 0, 0, 0, 0], [0, 0, 0, 0, 0, 0, 0, 0, 0, 0, 0, 0, 0, 0, 0, 0, 0, 0, 0, 0, 0, 0, 0, 0, 0, 0, 0, 0, 0, 0, 0, 0, 0, 0, 0, 0, 0, 0, 0, 0, 0, 0, 0, 0, 0, 0, 0, 0, 0, 0, 0, 0, 0, 0, 0, 0, 0, 0, 0, 0], [0, 0, 0, 0, 0, 0, 0, 0, 0, 0, 0, 0, 0, 0, 0, 0, 0, 0, 0, 0, 0, 0, 0, 0, 0, 0, 0, 0, 0, 0, 0, 0, 0, 0, 0, 0, 0, 0, 0, 0, 0, 0, 0, 0, 0, 0, 0, 0, 0, 0, 0, 0, 0, 0, 0, 0, 0, 0, 0, 0], [43, 36, 37, 49, 36, 43, 40, 44, 47, 40, 33, 31, 45, 42, 42, 45, 37, 42, 38, 35, 31, 40, 38, 45, 50, 41, 33, 50, 43, 44, 34, 42, 39, 43, 30, 30, 45, 39, 43, 47, 42, 49, 45, 36, 49, 41, 37, 31, 41, 47, 43, 43, 41, 48, 47, 40, 35, 31, 31, 33], [33, 47, 49, 34, 36, 40, 33, 45, 44, 48, 45, 41, 46, 35, 35, 41, 41, 42, 41, 30, 34, 35, 33, 31, 43, 32, 30, 34, 38, 46, 36, 34, 43, 36, 38, 48, 46, 30, 43, 32, 49, 40, 39, 40, 42, 42, 42, 33, 45, 35, 30, 48, 44, 33, 31, 31, 38, 30, 36, 39], [37, 44, 44, 40, 50, 44, 46, 42, 36, 32, 30, 50, 33, 37, 47, 39, 35, 35, 39, 44, 50, 47, 47, 44, 44, 36, 37, 39, 36, 45, 41, 41, 40, 36, 47, 44, 38, 38, 47, 38, 40, 44, 41, 38, 37, 31, 37, 41, 39, 32, 39, 36, 49, 45, 39, 31, 47, 36, 46, 32], [48, 33, 30, 36, 48, 36, 44, 38, 42, 47, 37, 49, 38, 44, 43, 45, 32, 50, 50, 50, 37, 46, 33, 37, 46, 46, 39, 30, 38, 50, 48, 37, 39, 31, 40, 35, 32, 36, 48, 41, 33, 32, 30, 47, 44, 39, 47, 44, 47, 38, 33, 40, 45, 37, 39, 37, 50, 42, 31, 30], [48, 40, 33, 34, 33, 41, 35, 50, 41, 50, 47, 38, 31, 40, 50, 45, 42, 34, 30, 36, 45, 48, 30, 36, 37, 43, 43, 36, 49, 32, 42, 31, 36, 41, 35, 35, 50, 46, 49, 40, 33, 34, 32, 49, 44, 49, 38, 31, 32, 41, 50, 35, 47, 46, 35, 36, 39, 47, 32, 45], [34, 44, 50, 41, 35, 37, 43, 49, 40, 30, 45, 45, 47, 44, 33, 42, 49, 35, 49, 30, 37, 31, 30, 46, 35, 44, 34, 31, 34, 33, 44, 48, 32, 38, 48, 33, 43, 46, 44, 37, 38, 35, 39, 50, 46, 49, 45, 43, 45, 45, 48, 38, 38, 34, 44, 46, 36, 31, 32, 41], [40, 49, 34, 47, 30, 38, 44, 49, 30, 32, 38, 50, 39, 31, 34, 37, 36, 48, 35, 35, 38, 36, 45, 34, 49, 50, 43, 50, 40, 37, 49, 32, 32, 32, 36, 45, 32, 37, 39, 38, 31, 44, 39, 48, 45, 37, 31, 41, 44, 30, 30, 38, 47, 42, 37, 50, 50, 41, 33, 38]], [[0, 0, 0, 0, 0, 0, 0, 0, 0, 0, 0, 0, 0, 0, 0, 0, 0, 0, 0, 0, 0, 0, 0, 0, 0, 0, 0, 0, 0, 0, 0, 0, 0, 0, 0, 0, 0, 0, 0, 0, 0, 0, 0, 0, 0, 0, 0, 0, 0, 0, 0, 0, 0, 0, 0, 0, 0, 0, 0, 0], [0, 0, 0, 0, 0, 0, 0, 0, 0, 0, 0, 0, 0, 0, 0, 0, 0, 0, 0, 0, 0, 0, 0, 0, 0, 0, 0, 0, 0, 0, 0, 0, 0, 0, 0, 0, 0, 0, 0, 0, 0, 0, 0, 0, 0, 0, 0, 0, 0, 0, 0, 0, 0, 0, 0, 0, 0, 0, 0, 0], [0, 0, 0, 0, 0, 0, 0, 0, 0, 0, 0, 0, 0, 0, 0, 0, 0, 0, 0, 0, 0, 0, 0, 0, 0, 0, 0, 0, 0, 0, 0, 0, 0, 0, 0, 0, 0, 0, 0, 0, 0, 0, 0, 0, 0, 0, 0, 0, 0, 0, 0, 0, 0, 0, 0, 0, 0, 0, 0, 0], [0, 0, 0, 0, 0, 0, 0, 0, 0, 0, 0, 0, 0, 0, 0, 0, 0, 0, 0, 0, 0, 0, 0, 0, 0, 0, 0, 0, 0, 0, 0, 0, 0, 0, 0, 0, 0, 0, 0, 0, 0, 0, 0, 0, 0, 0, 0, 0, 0, 0, 0, 0, 0, 0, 0, 0, 0, 0, 0, 0], [33, 42, 37, 38, 37, 48, 37, 49, 49, 39, 43, 38, 45, 32, 49, 47, 35, 45, 48, 39, 47, 36, 43, 40, 40, 30, 48, 34, 46, 37, 49, 31, 39, 36, 38, 35, 34, 43, 35, 37, 31, 43, 32, 45, 44, 33, 30, 41, 33, 46, 31, 31, 39, 45, 46, 48, 35, 32, 40, 38], [33, 41, 42, 43, 46, 34, 30, 46, 33, 45, 39, 47, 38, 50, 39, 33, 40, 36, 49, 50, 32, 40, 33, 36, 47, 42, 50, 30, 30, 40, 37, 34, 49, 44, 49, 50, 37, 32, 40, 30, 43, 36, 50, 45, 49, 45, 34, 33, 48, 41, 50, 47, 42, 46, 30, 37, 48, 38, 31, 45], [33, 40, 40, 49, 36, 42, 40, 46, 45, 46, 45, 35, 32, 44, 31, 30, 47, 37, 42, 43, 41, 48, 42, 36, 47, 50, 43, 49, 45, 47, 36, 46, 30, 45, 48, 33, 30, 30, 44, 40, 42, 37, 42, 48, 48, 43, 48, 39, 49, 39, 35, 50, 34, 46, 37, 42, 32, 35, 50, 31], [50, 41, 40, 36, 36, 49, 47, 45, 36, 37, 47, 40, 31, 38, 50, 41, 49, 46, 44, 45, 36, 41, 42, 34, 37, 48, 33, 42, 33, 49, 31, 48, 39, 33, 31, 36, 45, 35, 45, 44, 48, 46, 49, 47, 32, 31, 44, 44, 42, 45, 33, 49, 44, 37, 33, 42, 46, 41, 40, 38], [33, 33, 46, 50, 40, 31, 42, 36, 34, 38, 50, 48, 49, 44, 37, 36, 43, 37, 35, 30, 32, 46, 36, 49, 32, 38, 37, 30, 32, 35, 35, 44, 42, 40, 49, 31, 33, 45, 38, 41, 35, 46, 36, 36, 30, 31, 38, 43, 47, 37, 50, 49, 46, 35, 34, 30, 32, 36, 44, 37], [48, 50, 33, 44, 45, 39, 50, 35, 34, 36, 38, 32, 38, 42, 44, 50, 30, 49, 44, 41, 37, 45, 40, 50, 41, 37, 33, 33, 32, 39, 47, 39, 31, 30, 38, 45, 42, 43, 44, 32, 32, 43, 35, 44, 42, 49, 48, 40, 45, 31, 48, 32, 48, 42, 36, 47, 32, 41, 46, 37]], [[0, 0, 0, 0, 0, 0, 0, 0, 0, 0, 0, 0, 0, 0, 0, 0, 0, 0, 0, 0, 0, 0, 0, 0, 0, 0, 0, 0, 0, 0, 0, 0, 0, 0, 0, 0, 0, 0, 0, 0, 0, 0, 0, 0, 0, 0, 0, 0, 0, 0, 0, 0, 0, 0, 0, 0, 0, 0, 0, 0], [0, 0, 0, 0, 0, 0, 0, 0, 0, 0, 0, 0, 0, 0, 0, 0, 0, 0, 0, 0, 0, 0, 0, 0, 0, 0, 0, 0, 0, 0, 0, 0, 0, 0, 0, 0, 0, 0, 0, 0, 0, 0, 0, 0, 0, 0, 0, 0, 0, 0, 0, 0, 0, 0, 0, 0, 0, 0, 0, 0], [0, 0, 0, 0, 0, 0, 0, 0, 0, 0, 0, 0, 0, 0, 0, 0, 0, 0, 0, 0, 0, 0, 0, 0, 0, 0, 0, 0, 0, 0, 0, 0, 0, 0, 0, 0, 0, 0, 0, 0, 0, 0, 0, 0, 0, 0, 0, 0, 0, 0, 0, 0, 0, 0, 0, 0, 0, 0, 0, 0], [0, 0, 0, 0, 0, 0, 0, 0, 0, 0, 0, 0, 0, 0, 0, 0, 0, 0, 0, 0, 0, 0, 0, 0, 0, 0, 0, 0, 0, 0, 0, 0, 0, 0, 0, 0, 0, 0, 0, 0, 0, 0, 0, 0, 0, 0, 0, 0, 0, 0, 0, 0, 0, 0, 0, 0, 0, 0, 0, 0], [0, 0, 0, 0, 0, 0, 0, 0, 0, 0, 0, 0, 0, 0, 0, 0, 0, 0, 0, 0, 0, 0, 0, 0, 0, 0, 0, 0, 0, 0, 0, 0, 0, 0, 0, 0, 0, 0, 0, 0, 0, 0, 0, 0, 0, 0, 0, 0, 0, 0, 0, 0, 0, 0, 0, 0, 0, 0, 0, 0], [48, 39, 48, 50, 45, 35, 39, 43, 39, 46, 43, 41, 46, 44, 40, 43, 49, 30, 41, 46, 35, 31, 30, 44, 39, 37, 34, 34, 31, 33, 47, 42, 41, 48, 37, 33, 50, 40, 32, 32, 34, 39, 30, 41, 37, 32, 32, 41, 41, 49, 35, 41, 37, 42, 45, 37, 38, 46, 38, 33], [32, 31, 31, 32, 48, 44, 36, 41, 38, 48, 33, 39, 36, 38, 34, 43, 42, 38, 49, 48, 49, 31, 47, 45, 47, 38, 36, 43, 44, 30, 44, 39, 42, 42, 50, 31, 41, 34, 40, 46, 33, 35, 47, 46, 32, 42, 41, 31, 48, 44, 40, 44, 40, 35, 48, 46, 42, 47, 36, 46], [36, 47, 39, 42, 32, 50, 48, 48, 48, 35, 35, 47, 44, 40, 47, 33, 39, 47, 45, 30, 44, 33, 34, 34, 34, 34, 49, 45, 43, 37, 43, 32, 41, 32, 41, 43, 48, 47, 43, 44, 34, 45, 32, 44, 43, 40, 44, 32, 49, 34, 40, 44, 34, 44, 32, 30, 38, 36, 36, 33], [47, 41, 37, 43, 34, 42, 45, 37, 39, 43, 45, 50, 35, 42, 33, 35, 46, 30, 46, 43, 40, 32, 44, 35, 35, 30, 42, 43, 35, 44, 49, 46, 39, 34, 37, 40, 34, 35, 37, 39, 46, 44, 33, 45, 48, 33, 39, 31, 48, 45, 46, 45, 33, 47, 47, 40, 34, 45, 37, 39], [34, 47, 31, 48, 50, 50, 38, 49, 36, 48, 46, 50, 38, 45, 49, 35, 44, 31, 37, 33, 44, 45, 31, 46, 40, 38, 50, 31, 36, 31, 35, 36, 46, 30, 48, 30, 39, 35, 49, 37, 45, 32, 36, 41, 44, 50, 32, 30, 33, 45, 47, 44, 37, 50, 36, 31, 39, 46, 47, 31]], [[0, 0, 0, 0, 0, 0, 0, 0, 0, 0, 0, 0, 0, 0, 0, 0, 0, 0, 0, 0, 0, 0, 0, 0, 0, 0, 0, 0, 0, 0, 0, 0, 0, 0, 0, 0, 0, 0, 0, 0, 0, 0, 0, 0, 0, 0, 0, 0, 0, 0, 0, 0, 0, 0, 0, 0, 0, 0, 0, 0], [0, 0, 0, 0, 0, 0, 0, 0, 0, 0, 0, 0, 0, 0, 0, 0, 0, 0, 0, 0, 0, 0, 0, 0, 0, 0, 0, 0, 0, 0, 0, 0, 0, 0, 0, 0, 0, 0, 0, 0, 0, 0, 0, 0, 0, 0, 0, 0, 0, 0, 0, 0, 0, 0, 0, 0, 0, 0, 0, 0], [0, 0, 0, 0, 0, 0, 0, 0, 0, 0, 0, 0, 0, 0, 0, 0, 0, 0, 0, 0, 0, 0, 0, 0, 0, 0, 0, 0, 0, 0, 0, 0, 0, 0, 0, 0, 0, 0, 0, 0, 0, 0, 0, 0, 0, 0, 0, 0, 0, 0, 0, 0, 0, 0, 0, 0, 0, 0, 0, 0], [0, 0, 0, 0, 0, 0, 0, 0, 0, 0, 0, 0, 0, 0, 0, 0, 0, 0, 0, 0, 0, 0, 0, 0, 0, 0, 0, 0, 0, 0, 0, 0, 0, 0, 0, 0, 0, 0, 0, 0, 0, 0, 0, 0, 0, 0, 0, 0, 0, 0, 0, 0, 0, 0, 0, 0, 0, 0, 0, 0], [0, 0, 0, 0, 0, 0, 0, 0, 0, 0, 0, 0, 0, 0, 0, 0, 0, 0, 0, 0, 0, 0, 0, 0, 0, 0, 0, 0, 0, 0, 0, 0, 0, 0, 0, 0, 0, 0, 0, 0, 0, 0, 0, 0, 0, 0, 0, 0, 0, 0, 0, 0, 0, 0, 0, 0, 0, 0, 0, 0], [0, 0, 0, 0, 0, 0, 0, 0, 0, 0, 0, 0, 0, 0, 0, 0, 0, 0, 0, 0, 0, 0, 0, 0, 0, 0, 0, 0, 0, 0, 0, 0, 0, 0, 0, 0, 0, 0, 0, 0, 0, 0, 0, 0, 0, 0, 0, 0, 0, 0, 0, 0, 0, 0, 0, 0, 0, 0, 0, 0], [49, 43, 32, 38, 32, 47, 36, 47, 31, 33, 35, 41, 47, 33, 31, 42, 36, 40, 44, 44, 45, 50, 43, 30, 45, 30, 36, 45, 34, 35, 31, 40, 46, 47, 33, 35, 33, 40, 36, 35, 49, 45, 31, 47, 40, 41, 49, 31, 34, 40, 42, 45, 45, 33, 44, 42, 34, 50, 37, 47], [39, 33, 41, 47, 33, 32, 32, 50, 35, 37, 43, 33, 30, 47, 31, 38, 42, 43, 37, 41, 36, 39, 41, 31, 32, 33, 45, 36, 34, 34, 37, 49, 45, 43, 38, 35, 50, 48, 35, 47, 48, 35, 36, 39, 46, 41, 33, 31, 31, 33, 35, 35, 48, 35, 42, 39, 47, 44, 42, 33], [33, 32, 41, 48, 43, 31, 43, 32, 39, 35, 35, 39, 46, 37, 39, 48, 45, 49, 38, 46, 38, 33, 50, 34, 39, 42, 49, 47, 49, 37, 49, 45, 32, 43, 30, 45, 37, 30, 43, 44, 49, 31, 41, 43, 33, 31, 45, 37, 37, 33, 38, 38, 44, 33, 48, 50, 33, 30, 43, 34], [30, 38, 35, 33, 31, 50, 50, 48, 35, 45, 50, 37, 39, 38, 39, 42, 31, 48, 47, 37, 34, 46, 36, 35, 33, 40, 48, 44, 40, 39, 50, 34, 40, 39, 48, 33, 37, 50, 35, 45, 35, 46, 47, 36, 47, 35, 35, 37, 31, 47, 33, 44, 32, 31, 34, 32, 42, 43, 47, 50]], [[0, 0, 0, 0, 0, 0, 0, 0, 0, 0, 0, 0, 0, 0, 0, 0, 0, 0, 0, 0, 0, 0, 0, 0, 0, 0, 0, 0, 0, 0, 0, 0, 0, 0, 0, 0, 0, 0, 0, 0, 0, 0, 0, 0, 0, 0, 0, 0, 0, 0, 0, 0, 0, 0, 0, 0, 0, 0, 0, 0], [0, 0, 0, 0, 0, 0, 0, 0, 0, 0, 0, 0, 0, 0, 0, 0, 0, 0, 0, 0, 0, 0, 0, 0, 0, 0, 0, 0, 0, 0, 0, 0, 0, 0, 0, 0, 0, 0, 0, 0, 0, 0, 0, 0, 0, 0, 0, 0, 0, 0, 0, 0, 0, 0, 0, 0, 0, 0, 0, 0], [0, 0, 0, 0, 0, 0, 0, 0, 0, 0, 0, 0, 0, 0, 0, 0, 0, 0, 0, 0, 0, 0, 0, 0, 0, 0, 0, 0, 0, 0, 0, 0, 0, 0, 0, 0, 0, 0, 0, 0, 0, 0, 0, 0, 0, 0, 0, 0, 0, 0, 0, 0, 0, 0, 0, 0, 0, 0, 0, 0], [0, 0, 0, 0, 0, 0, 0, 0, 0, 0, 0, 0, 0, 0, 0, 0, 0, 0, 0, 0, 0, 0, 0, 0, 0, 0, 0, 0, 0, 0, 0, 0, 0, 0, 0, 0, 0, 0, 0, 0, 0, 0, 0, 0, 0, 0, 0, 0, 0, 0, 0, 0, 0, 0, 0, 0, 0, 0, 0, 0], [0, 0, 0, 0, 0, 0, 0, 0, 0, 0, 0, 0, 0, 0, 0, 0, 0, 0, 0, 0, 0, 0, 0, 0, 0, 0, 0, 0, 0, 0, 0, 0, 0, 0, 0, 0, 0, 0, 0, 0, 0, 0, 0, 0, 0, 0, 0, 0, 0, 0, 0, 0, 0, 0, 0, 0, 0, 0, 0, 0], [0, 0, 0, 0, 0, 0, 0, 0, 0, 0, 0, 0, 0, 0, 0, 0, 0, 0, 0, 0, 0, 0, 0, 0, 0, 0, 0, 0, 0, 0, 0, 0, 0, 0, 0, 0, 0, 0, 0, 0, 0, 0, 0, 0, 0, 0, 0, 0, 0, 0, 0, 0, 0, 0, 0, 0, 0, 0, 0, 0], [0, 0, 0, 0, 0, 0, 0, 0, 0, 0, 0, 0, 0, 0, 0, 0, 0, 0, 0, 0, 0, 0, 0, 0, 0, 0, 0, 0, 0, 0, 0, 0, 0, 0, 0, 0, 0, 0, 0, 0, 0, 0, 0, 0, 0, 0, 0, 0, 0, 0, 0, 0, 0, 0, 0, 0, 0, 0, 0, 0], [44, 50, 34, 44, 48, 44, 41, 48, 37, 50, 30, 31, 46, 36, 38, 44, 40, 47, 48, 48, 40, 42, 33, 42, 36, 35, 35, 32, 45, 35, 47, 38, 32, 33, 31, 31, 34, 33, 41, 37, 36, 35, 37, 43, 48, 41, 45, 31, 46, 33, 36, 46, 45, 49, 35, 43, 50, 32, 32, 49], [37, 38, 43, 37, 47, 30, 44, 46, 47, 40, 36, 44, 37, 47, 47, 42, 40, 49, 41, 33, 45, 31, 34, 43, 33, 35, 32, 40, 41, 32, 30, 30, 37, 32, 48, 30, 34, 32, 34, 48, 35, 50, 34, 32, 35, 40, 36, 43, 34, 37, 50, 30, 41, 36, 30, 46, 50, 44, 46, 45], [35, 38, 39, 31, 33, 44, 33, 32, 37, 49, 49, 50, 37, 38, 46, 33, 49, 42, 43, 35, 45, 33, 37, 41, 50, 45, 32, 40, 38, 41, 34, 38, 40, 46, 43, 38, 47, 30, 39, 49, 31, 39, 49, 48, 32, 33, 46, 35, 33, 33, 50, 40, 33, 49, 39, 48, 37, 49, 42, 40]], [[0, 0, 0, 0, 0, 0, 0, 0, 0, 0, 0, 0, 0, 0, 0, 0, 0, 0, 0, 0, 0, 0, 0, 0, 0, 0, 0, 0, 0, 0, 0, 0, 0, 0, 0, 0, 0, 0, 0, 0, 0, 0, 0, 0, 0, 0, 0, 0, 0, 0, 0, 0, 0, 0, 0, 0, 0, 0, 0, 0], [0, 0, 0, 0, 0, 0, 0, 0, 0, 0, 0, 0, 0, 0, 0, 0, 0, 0, 0, 0, 0, 0, 0, 0, 0, 0, 0, 0, 0, 0, 0, 0, 0, 0, 0, 0, 0, 0, 0, 0, 0, 0, 0, 0, 0, 0, 0, 0, 0, 0, 0, 0, 0, 0, 0, 0, 0, 0, 0, 0], [0, 0, 0, 0, 0, 0, 0, 0, 0, 0, 0, 0, 0, 0, 0, 0, 0, 0, 0, 0, 0, 0, 0, 0, 0, 0, 0, 0, 0, 0, 0, 0, 0, 0, 0, 0, 0, 0, 0, 0, 0, 0, 0, 0, 0, 0, 0, 0, 0, 0, 0, 0, 0, 0, 0, 0, 0, 0, 0, 0], [0, 0, 0, 0, 0, 0, 0, 0, 0, 0, 0, 0, 0, 0, 0, 0, 0, 0, 0, 0, 0, 0, 0, 0, 0, 0, 0, 0, 0, 0, 0, 0, 0, 0, 0, 0, 0, 0, 0, 0, 0, 0, 0, 0, 0, 0, 0, 0, 0, 0, 0, 0, 0, 0, 0, 0, 0, 0, 0, 0], [0, 0, 0, 0, 0, 0, 0, 0, 0, 0, 0, 0, 0, 0, 0, 0, 0, 0, 0, 0, 0, 0, 0, 0, 0, 0, 0, 0, 0, 0, 0, 0, 0, 0, 0, 0, 0, 0, 0, 0, 0, 0, 0, 0, 0, 0, 0, 0, 0, 0, 0, 0, 0, 0, 0, 0, 0, 0, 0, 0], [0, 0, 0, 0, 0, 0, 0, 0, 0, 0, 0, 0, 0, 0, 0, 0, 0, 0, 0, 0, 0, 0, 0, 0, 0, 0, 0, 0, 0, 0, 0, 0, 0, 0, 0, 0, 0, 0, 0, 0, 0, 0, 0, 0, 0, 0, 0, 0, 0, 0, 0, 0, 0, 0, 0, 0, 0, 0, 0, 0], [0, 0, 0, 0, 0, 0, 0, 0, 0, 0, 0, 0, 0, 0, 0, 0, 0, 0, 0, 0, 0, 0, 0, 0, 0, 0, 0, 0, 0, 0, 0, 0, 0, 0, 0, 0, 0, 0, 0, 0, 0, 0, 0, 0, 0, 0, 0, 0, 0, 0, 0, 0, 0, 0, 0, 0, 0, 0, 0, 0], [0, 0, 0, 0, 0, 0, 0, 0, 0, 0, 0, 0, 0, 0, 0, 0, 0, 0, 0, 0, 0, 0, 0, 0, 0, 0, 0, 0, 0, 0, 0, 0, 0, 0, 0, 0, 0, 0, 0, 0, 0, 0, 0, 0, 0, 0, 0, 0, 0, 0, 0, 0, 0, 0, 0, 0, 0, 0, 0, 0], [34, 45, 30, 36, 45, 35, 47, 34, 50, 43, 42, 43, 36, 44, 41, 40, 39, 40, 32, 34, 37, 49, 34, 33, 44, 31, 30, 36, 41, 36, 43, 45, 46, 33, 41, 44, 45, 50, 35, 32, 36, 31, 42, 37, 36, 35, 38, 36, 39, 31, 50, 31, 33, 47, 30, 32, 41, 33, 38, 42], [37, 30, 50, 34, 31, 34, 50, 31, 33, 49, 41, 39, 49, 49, 44, 32, 34, 35, 46, 32, 41, 30, 48, 41, 40, 35, 30, 49, 45, 33, 30, 50, 31, 44, 45, 44, 43, 33, 50, 32, 46, 42, 31, 50, 39, 48, 50, 33, 30, 47, 43, 32, 42, 44, 33, 30, 47, 41, 39, 30]], [[0, 0, 0, 0, 0, 0, 0, 0, 0, 0, 0, 0, 0, 0, 0, 0, 0, 0, 0, 0, 0, 0, 0, 0, 0, 0, 0, 0, 0, 0, 0, 0, 0, 0, 0, 0, 0, 0, 0, 0, 0, 0, 0, 0, 0, 0, 0, 0, 0, 0, 0, 0, 0, 0, 0, 0, 0, 0, 0, 0], [0, 0, 0, 0, 0, 0, 0, 0, 0, 0, 0, 0, 0, 0, 0, 0, 0, 0, 0, 0, 0, 0, 0, 0, 0, 0, 0, 0, 0, 0, 0, 0, 0, 0, 0, 0, 0, 0, 0, 0, 0, 0, 0, 0, 0, 0, 0, 0, 0, 0, 0, 0, 0, 0, 0, 0, 0, 0, 0, 0], [0, 0, 0, 0, 0, 0, 0, 0, 0, 0, 0, 0, 0, 0, 0, 0, 0, 0, 0, 0, 0, 0, 0, 0, 0, 0, 0, 0, 0, 0, 0, 0, 0, 0, 0, 0, 0, 0, 0, 0, 0, 0, 0, 0, 0, 0, 0, 0, 0, 0, 0, 0, 0, 0, 0, 0, 0, 0, 0, 0], [0, 0, 0, 0, 0, 0, 0, 0, 0, 0, 0, 0, 0, 0, 0, 0, 0, 0, 0, 0, 0, 0, 0, 0, 0, 0, 0, 0, 0, 0, 0, 0, 0, 0, 0, 0, 0, 0, 0, 0, 0, 0, 0, 0, 0, 0, 0, 0, 0, 0, 0, 0, 0, 0, 0, 0, 0, 0, 0, 0], [0, 0, 0, 0, 0, 0, 0, 0, 0, 0, 0, 0, 0, 0, 0, 0, 0, 0, 0, 0, 0, 0, 0, 0, 0, 0, 0, 0, 0, 0, 0, 0, 0, 0, 0, 0, 0, 0, 0, 0, 0, 0, 0, 0, 0, 0, 0, 0, 0, 0, 0, 0, 0, 0, 0, 0, 0, 0, 0, 0], [0, 0, 0, 0, 0, 0, 0, 0, 0, 0, 0, 0, 0, 0, 0, 0, 0, 0, 0, 0, 0, 0, 0, 0, 0, 0, 0, 0, 0, 0, 0, 0, 0, 0, 0, 0, 0, 0, 0, 0, 0, 0, 0, 0, 0, 0, 0, 0, 0, 0, 0, 0, 0, 0, 0, 0, 0, 0, 0, 0], [0, 0, 0, 0, 0, 0, 0, 0, 0, 0, 0, 0, 0, 0, 0, 0, 0, 0, 0, 0, 0, 0, 0, 0, 0, 0, 0, 0, 0, 0, 0, 0, 0, 0, 0, 0, 0, 0, 0, 0, 0, 0, 0, 0, 0, 0, 0, 0, 0, 0, 0, 0, 0, 0, 0, 0, 0, 0, 0, 0], [0, 0, 0, 0, 0, 0, 0, 0, 0, 0, 0, 0, 0, 0, 0, 0, 0, 0, 0, 0, 0, 0, 0, 0, 0, 0, 0, 0, 0, 0, 0, 0, 0, 0, 0, 0, 0, 0, 0, 0, 0, 0, 0, 0, 0, 0, 0, 0, 0, 0, 0, 0, 0, 0, 0, 0, 0, 0, 0, 0], [0, 0, 0, 0, 0, 0, 0, 0, 0, 0, 0, 0, 0, 0, 0, 0, 0, 0, 0, 0, 0, 0, 0, 0, 0, 0, 0, 0, 0, 0, 0, 0, 0, 0, 0, 0, 0, 0, 0, 0, 0, 0, 0, 0, 0, 0, 0, 0, 0, 0, 0, 0, 0, 0, 0, 0, 0, 0, 0, 0], [37, 41, 38, 41, 37, 46, 30, 37, 36, 44, 41, 33, 33, 41, 48, 35, 49, 30, 39, 39, 32, 40, 43, 46, 47, 39, 47, 32, 47, 36, 50, 31, 31, 48, 40, 44, 42, 33, 32, 48, 43, 42, 41, 32, 44, 50, 40, 37, 40, 38, 41, 37, 50, 34, 31, 48, 34, 50, 48, 37]], [[0, 0, 0, 0, 0, 0, 0, 0, 0, 0, 0, 0, 0, 0, 0, 0, 0, 0, 0, 0, 0, 0, 0, 0, 0, 0, 0, 0, 0, 0, 0, 0, 0, 0, 0, 0, 0, 0, 0, 0, 0, 0, 0, 0, 0, 0, 0, 0, 0, 0, 0, 0, 0, 0, 0, 0, 0, 0, 0, 0], [0, 0, 0, 0, 0, 0, 0, 0, 0, 0, 0, 0, 0, 0, 0, 0, 0, 0, 0, 0, 0, 0, 0, 0, 0, 0, 0, 0, 0, 0, 0, 0, 0, 0, 0, 0, 0, 0, 0, 0, 0, 0, 0, 0, 0, 0, 0, 0, 0, 0, 0, 0, 0, 0, 0, 0, 0, 0, 0, 0], [0, 0, 0, 0, 0, 0, 0, 0, 0, 0, 0, 0, 0, 0, 0, 0, 0, 0, 0, 0, 0, 0, 0, 0, 0, 0, 0, 0, 0, 0, 0, 0, 0, 0, 0, 0, 0, 0, 0, 0, 0, 0, 0, 0, 0, 0, 0, 0, 0, 0, 0, 0, 0, 0, 0, 0, 0, 0, 0, 0], [0, 0, 0, 0, 0, 0, 0, 0, 0, 0, 0, 0, 0, 0, 0, 0, 0, 0, 0, 0, 0, 0, 0, 0, 0, 0, 0, 0, 0, 0, 0, 0, 0, 0, 0, 0, 0, 0, 0, 0, 0, 0, 0, 0, 0, 0, 0, 0, 0, 0, 0, 0, 0, 0, 0, 0, 0, 0, 0, 0], [0, 0, 0, 0, 0, 0, 0, 0, 0, 0, 0, 0, 0, 0, 0, 0, 0, 0, 0, 0, 0, 0, 0, 0, 0, 0, 0, 0, 0, 0, 0, 0, 0, 0, 0, 0, 0, 0, 0, 0, 0, 0, 0, 0, 0, 0, 0, 0, 0, 0, 0, 0, 0, 0, 0, 0, 0, 0, 0, 0], [0, 0, 0, 0, 0, 0, 0, 0, 0, 0, 0, 0, 0, 0, 0, 0, 0, 0, 0, 0, 0, 0, 0, 0, 0, 0, 0, 0, 0, 0, 0, 0, 0, 0, 0, 0, 0, 0, 0, 0, 0, 0, 0, 0, 0, 0, 0, 0, 0, 0, 0, 0, 0, 0, 0, 0, 0, 0, 0, 0], [0, 0, 0, 0, 0, 0, 0, 0, 0, 0, 0, 0, 0, 0, 0, 0, 0, 0, 0, 0, 0, 0, 0, 0, 0, 0, 0, 0, 0, 0, 0, 0, 0, 0, 0, 0, 0, 0, 0, 0, 0, 0, 0, 0, 0, 0, 0, 0, 0, 0, 0, 0, 0, 0, 0, 0, 0, 0, 0, 0], [0, 0, 0, 0, 0, 0, 0, 0, 0, 0, 0, 0, 0, 0, 0, 0, 0, 0, 0, 0, 0, 0, 0, 0, 0, 0, 0, 0, 0, 0, 0, 0, 0, 0, 0, 0, 0, 0, 0, 0, 0, 0, 0, 0, 0, 0, 0, 0, 0, 0, 0, 0, 0, 0, 0, 0, 0, 0, 0, 0], [0, 0, 0, 0, 0, 0, 0, 0, 0, 0, 0, 0, 0, 0, 0, 0, 0, 0, 0, 0, 0, 0, 0, 0, 0, 0, 0, 0, 0, 0, 0, 0, 0, 0, 0, 0, 0, 0, 0, 0, 0, 0, 0, 0, 0, 0, 0, 0, 0, 0, 0, 0, 0, 0, 0, 0, 0, 0, 0, 0], [0, 0, 0, 0, 0, 0, 0, 0, 0, 0, 0, 0, 0, 0, 0, 0, 0, 0, 0, 0, 0, 0, 0, 0, 0, 0, 0, 0, 0, 0, 0, 0, 0, 0, 0, 0, 0, 0, 0, 0, 0, 0, 0, 0, 0, 0, 0, 0, 0, 0, 0, 0, 0, 0, 0, 0, 0, 0, 0, 0]]];

q = [[[23, 110], [17, 116], [23, 107], [17, 125], [10, 113], [23, 110], [21, 116], [14, 111], [11, 123], [17, 121], [16, 109], [16, 125], [21, 118], [20, 113], [9, 110], [24, 123], [15, 109], [6, 123], [23, 117], [15, 120], [22, 117], [7, 114], [14, 120], [5, 120], [7, 115], [20, 123], [10, 113], [22, 124], [8, 109], [9, 123], [23, 112], [24, 121], [6, 124], [11, 111], [25, 120], [20, 105], [22, 109], [5, 109], [9, 111], [13, 125], [25, 108], [5, 123], [18, 121], [8, 121], [10, 121], [15, 120], [23, 106], [21, 107], [18, 114], [23, 125], [11, 117], [6, 105], [8, 116], [11, 125], [12, 119], [12, 122], [8, 107], [14, 108], [10, 115], [19, 123]], [[12, 117], [15, 109], [10, 119], [24, 108], [25, 110], [16, 119], [21, 117], [25, 110], [9, 124], [10, 112], [18, 117], [14, 113], [17, 122], [22, 117], [7, 119], [15, 115], [15, 107], [18, 124], [18, 105], [24, 115], [25, 120], [19, 119], [13, 112], [22, 117], [15, 118], [7, 119], [23, 124], [12, 123], [8, 113], [5, 121], [16, 124], [8, 106], [24, 125], [23, 119], [19, 106], [7, 122], [13, 109], [9, 116], [23, 123], [5, 107], [10, 112], [8, 117], [8, 112], [25, 112], [19, 114], [10, 118], [11, 107], [16, 112], [16, 110], [20, 108], [22, 106], [25, 123], [17, 121], [23, 123], [15, 122], [9, 113], [18, 116], [13, 112], [11, 110], [8, 124]], [[18, 122], [10, 120], [24, 115], [25, 110], [13, 123], [10, 121], [24, 109], [12, 125], [25, 118], [21, 111], [17, 114], [13, 107], [5, 111], [18, 112], [25, 106], [8, 118], [16, 111], [12, 116], [7, 124], [23, 114], [8, 123], [24, 110], [15, 120], [14, 108], [22, 108], [7, 112], [20, 106], [21, 124], [16, 121], [17, 105], [15, 116], [23, 107], [22, 118], [16, 110], [11, 111], [12, 122], [20, 124], [21, 119], [14, 111], [8, 109], [21, 121], [10, 124], [5, 114], [7, 115], [21, 111], [14, 117], [8, 110], [9, 117], [21, 119], [25, 123], [8, 108], [14, 124], [7, 117], [17, 120], [13, 115], [12, 114], [16, 109], [7, 108], [21, 115], [6, 108]], [[20, 115], [25, 119], [21, 107], [7, 124], [5, 125], [25, 115], [7, 106], [19, 113], [12, 117], [15, 123], [25, 119], [11, 109], [8, 124], [6, 120], [25, 116], [12, 111], [9, 123], [22, 110], [5, 114], [13, 117], [18, 123], [25, 124], [19, 112], [6, 122], [15, 118], [7, 113], [14, 121], [18, 110], [8, 115], [22, 118], [8, 110], [10, 114], [9, 111], [8, 112], [19, 119], [16, 122], [7, 116], [13, 123], [10, 115], [7, 119], [11, 114], [8, 122], [5, 106], [11, 120], [23, 110], [6, 113], [10, 108], [24, 122], [15, 113], [22, 110], [8, 106], [12, 125], [11, 119], [16, 125], [16, 122], [11, 112], [12, 122], [16, 107], [16, 111], [6, 114]], [[12, 124], [11, 115], [21, 117], [21, 110], [15, 107], [10, 118], [11, 120], [10, 121], [24, 108], [20, 116], [20, 105], [9, 118], [11, 113], [21, 108], [14, 121], [12, 111], [17, 113], [12, 112], [5, 123], [17, 111], [22, 118], [20, 112], [23, 125], [17, 109], [10, 121], [5, 123], [19, 118], [5, 112], [17, 125], [22, 106], [17, 109], [12, 106], [19, 116], [14, 110], [21, 122], [17, 122], [18, 110], [21, 124], [6, 105], [16, 112], [14, 120], [13, 108], [10, 107], [11, 112], [15, 116], [8, 107], [7, 110], [21, 112], [18, 121], [12, 117], [11, 120], [21, 122], [15, 111], [6, 120], [14, 123], [25, 122], [6, 118], [12, 120], [24, 111], [20, 124]], [[21, 105], [7, 113], [11, 109], [6, 113], [14, 115], [8, 125], [5, 118], [5, 108], [9, 105], [24, 125], [20, 114], [25, 118], [17, 116], [8, 120], [7, 108], [5, 111], [19, 123], [5, 124], [8, 124], [21, 122], [7, 105], [8, 112], [11, 105], [24, 106], [19, 108], [17, 119], [16, 107], [16, 117], [7, 105], [17, 115], [23, 109], [8, 115], [20, 116], [13, 123], [14, 117], [16, 113], [25, 113], [19, 113], [19, 113], [15, 122], [21, 117], [13, 106], [19, 107], [12, 116], [9, 115], [20, 120], [24, 118], [5, 109], [9, 123], [10, 119], [7, 116], [18, 110], [10, 109], [24, 111], [17, 106], [11, 109], [5, 113], [25, 112], [12, 111], [25, 107]], [[18, 105], [20, 119], [23, 119], [17, 107], [16, 111], [23, 115], [24, 119], [21, 106], [6, 125], [22, 114], [7, 112], [21, 125], [24, 112], [10, 121], [24, 108], [12, 115], [9, 106], [9, 124], [21, 111], [21, 125], [14, 123], [5, 117], [7, 120], [23, 110], [25, 120], [23, 118], [14, 120], [6, 115], [5, 112], [8, 113], [13, 121], [25, 108], [13, 110], [11, 117], [23, 110], [17, 119], [17, 110], [9, 112], [20, 119], [21, 108], [21, 119], [15, 108], [7, 112], [14, 107], [18, 122], [5, 110], [20, 116], [20, 123], [23, 114], [21, 119], [12, 116], [18, 111], [7, 109], [20, 119], [10, 108], [24, 121], [16, 116], [15, 112], [9, 109], [19, 112]], [[20, 120], [12, 125], [20, 108], [21, 124], [6, 124], [5, 119], [25, 115], [19, 125], [12, 122], [5, 122], [25, 122], [8, 121], [25, 119], [15, 107], [5, 113], [7, 105], [21, 112], [14, 119], [10, 110], [13, 120], [5, 109], [5, 124], [8, 107], [5, 116], [15, 109], [8, 111], [24, 105], [15, 116], [8, 110], [5, 108], [10, 122], [21, 118], [10, 125], [16, 116], [23, 108], [17, 112], [19, 120], [19, 118], [9, 113], [18, 110], [8, 119], [5, 106], [23, 107], [20, 107], [13, 123], [16, 124], [6, 105], [5, 112], [21, 114], [8, 111], [22, 106], [18, 115], [9, 116], [21, 120], [19, 122], [18, 107], [14, 124], [7, 119], [25, 108], [5, 114]], [[19, 124], [10, 106], [23, 113], [5, 121], [8, 113], [15, 119], [21, 111], [17, 110], [16, 117], [6, 107], [16, 106], [6, 111], [19, 122], [10, 117], [7, 118], [11, 120], [14, 110], [20, 120], [24, 106], [18, 114], [22, 117], [22, 107], [14, 122], [6, 110], [10, 105], [9, 121], [11, 117], [17, 125], [7, 115], [14, 114], [23, 116], [6, 116], [16, 121], [16, 121], [13, 105], [18, 107], [15, 123], [13, 123], [9, 120], [23, 110], [16, 124], [18, 120], [18, 108], [7, 115], [21, 107], [20, 116], [24, 106], [25, 123], [16, 116], [18, 105], [21, 114], [12, 112], [20, 105], [21, 117], [13, 124], [16, 113], [22, 112], [15, 112], [18, 106], [24, 114]], [[21, 122], [22, 107], [5, 108], [14, 110], [23, 115], [8, 117], [21, 123], [9, 114], [25, 109], [23, 125], [7, 115], [23, 124], [5, 105], [25, 124], [18, 108], [18, 116], [24, 121], [23, 109], [20, 109], [16, 116], [21, 114], [21, 108], [12, 107], [17, 115], [12, 124], [19, 123], [22, 125], [22, 106], [14, 117], [19, 113], [17, 114], [19, 117], [15, 113], [22, 122], [17, 107], [9, 123], [18, 111], [12, 123], [8, 123], [21, 121], [14, 121], [17, 115], [6, 110], [12, 115], [13, 115], [6, 107], [25, 114], [23, 106], [19, 116], [13, 108], [25, 117], [25, 111], [5, 115], [17, 111], [7, 123], [25, 109], [25, 113], [23, 117], [7, 118], [19, 112]]];
Q = [[72, 558], [74, 555], [73, 552], [64, 558], [71, 554], [68, 546], [76, 551], [66, 553], [74, 550], [81, 552]];
